/* rikudo modélisé 
       / \ / \ / \ / \ 
      | 9 |   |   | 13|
     / \ / \ / \ X \ / \
    |   |   | 30|   |   |
   / \ / \ / \ / \ / \ / \
  | 6 |   |   |   |   |   |
 / \ / X / \ /X\ / \ / \ / \
|   +   |   |XXX|   | 16|   |
 \ / \ / \ / \X/ \ / \ / \ / 
  | 2 | 1 |   |   |   |   |
   \ / \ / \ / \ / \ / X /
    | 36|   | 25|   |   |
     \ / \ / \ / \ / \ /
      |   |   |   | 21| 
       \ / \ / \ / \ /       
*/

%nombre de case pre rempli
num_rempli = 10;

%cases pre rempli dans la forme [[valeur, position], [valeur, position], ...]
rempli = [|
9, 1|
13, 4|
30, 7|
6, 10|
16, 20|
2, 22|
1, 23|
36, 28|
25, 30|
21, 36|];


%nombre de liens obligatoires
num_liens = 4;

%liens obligatoires dans la forme [[position1, position2], [position1, position2], ...]
liens = [|
3, 8|
11, 17|
16, 17|
27, 32|];
